Welcome to the CBC MILP Solver 
Version: 2.10.12 
Build Date: Aug 20 2024 

command line - /opt/homebrew/bin/cbc computational_data/real_data/lp/iris_trial_005_margin.lp seconds 10.0 solve solu computational_data/real_data/solutions/iris_trial_005_margin.sol (default strategy 1)
 CoinLpIO::readLp(): Maximization problem reformulated as minimization
Coin0009I Switching back to maximization to get correct duals etc
seconds was changed from 1e+100 to 10
Continuous objective value is 29.4889 - 0.00 seconds
Cgl0003I 0 fixed, 0 tightened bounds, 167 strengthened rows, 0 substitutions
Cgl0003I 0 fixed, 0 tightened bounds, 186 strengthened rows, 0 substitutions
Cgl0003I 0 fixed, 0 tightened bounds, 170 strengthened rows, 0 substitutions
Cgl0003I 0 fixed, 0 tightened bounds, 152 strengthened rows, 0 substitutions
Cgl0003I 0 fixed, 0 tightened bounds, 119 strengthened rows, 0 substitutions
Cgl0003I 0 fixed, 0 tightened bounds, 109 strengthened rows, 0 substitutions
Cgl0003I 0 fixed, 0 tightened bounds, 93 strengthened rows, 0 substitutions
Cgl0003I 0 fixed, 0 tightened bounds, 43 strengthened rows, 0 substitutions
Cgl0003I 0 fixed, 0 tightened bounds, 28 strengthened rows, 0 substitutions
Cgl0004I processed model has 192 rows, 56 columns (56 integer (56 of which binary)) and 2016 elements
Cbc0038I Initial state - 15 integers unsatisfied sum - 3.68519
Cbc0038I Pass   1: suminf.    0.55556 (2) obj. 29.3408 iterations 16
Cbc0038I Pass   2: suminf.    0.11111 (1) obj. 28.8963 iterations 6
Cbc0038I Solution found of 28.0074
Cbc0038I Before mini branch and bound, 41 integers at bound fixed and 0 continuous
Cbc0038I Full problem 192 rows 56 columns, reduced to 15 rows 9 columns
Cbc0038I Mini branch and bound did not improve solution (0.02 seconds)
Cbc0038I Round again with cutoff of 28.1556
Cbc0038I Pass   3: suminf.    0.55556 (2) obj. 29.3408 iterations 0
Cbc0038I Pass   4: suminf.    0.11111 (1) obj. 28.8963 iterations 4
Cbc0038I Pass   5: suminf.    0.14815 (1) obj. 28.1556 iterations 2
Cbc0038I Pass   6: suminf.    0.44444 (1) obj. 28.4519 iterations 1
Cbc0038I Pass   7: suminf.    0.74074 (2) obj. 28.1556 iterations 11
Cbc0038I Pass   8: suminf.    0.14815 (1) obj. 28.1556 iterations 7
Cbc0038I Pass   9: suminf.    0.44444 (1) obj. 28.4519 iterations 4
Cbc0038I Pass  10: suminf.    0.55556 (2) obj. 29.3408 iterations 17
Cbc0038I Pass  11: suminf.    0.11111 (1) obj. 28.8963 iterations 17
Cbc0038I Pass  12: suminf.    0.14815 (1) obj. 28.1556 iterations 3
Cbc0038I Pass  13: suminf.    0.44444 (1) obj. 28.4519 iterations 2
Cbc0038I Pass  14: suminf.    0.55556 (2) obj. 28.3407 iterations 21
Cbc0038I Pass  15: suminf.    0.37044 (2) obj. 28.1556 iterations 15
Cbc0038I Pass  16: suminf.    0.14822 (1) obj. 28.1556 iterations 6
Cbc0038I Pass  17: suminf.    0.44444 (1) obj. 28.4518 iterations 1
Cbc0038I Pass  18: suminf.    0.14815 (1) obj. 28.1556 iterations 18
Cbc0038I Pass  19: suminf.    0.14815 (1) obj. 28.1556 iterations 14
Cbc0038I Pass  20: suminf.    0.44444 (1) obj. 28.4519 iterations 1
Cbc0038I Pass  21: suminf.    2.87040 (9) obj. 28.1556 iterations 28
Cbc0038I Pass  22: suminf.    0.37038 (2) obj. 28.1556 iterations 38
Cbc0038I Pass  23: suminf.    0.37038 (2) obj. 28.1556 iterations 5
Cbc0038I Pass  24: suminf.    0.14815 (1) obj. 28.1556 iterations 11
Cbc0038I Pass  25: suminf.    0.44444 (1) obj. 28.4519 iterations 5
Cbc0038I Pass  26: suminf.    0.74074 (2) obj. 28.1556 iterations 21
Cbc0038I Pass  27: suminf.    0.14815 (1) obj. 28.1556 iterations 12
Cbc0038I Pass  28: suminf.    0.44444 (1) obj. 28.4519 iterations 2
Cbc0038I Pass  29: suminf.    0.14815 (1) obj. 28.1556 iterations 26
Cbc0038I Pass  30: suminf.    0.14815 (1) obj. 28.1556 iterations 15
Cbc0038I Pass  31: suminf.    0.44444 (1) obj. 28.4519 iterations 1
Cbc0038I Pass  32: suminf.    0.14815 (1) obj. 28.1556 iterations 23
Cbc0038I No solution found this major pass
Cbc0038I Before mini branch and bound, 29 integers at bound fixed and 0 continuous
Cbc0038I Full problem 192 rows 56 columns, reduced to 42 rows 23 columns
Cbc0038I Mini branch and bound did not improve solution (0.03 seconds)
Cbc0038I After 0.03 seconds - Feasibility pump exiting with objective of 28.0074 - took 0.01 seconds
Cbc0012I Integer solution of 28.007431 found by feasibility pump after 0 iterations and 0 nodes (0.03 seconds)
Cbc0038I Full problem 192 rows 56 columns, reduced to 15 rows 9 columns
Cbc0031I 3 added rows had average density of 25.666667
Cbc0013I At root node, 5 cuts changed objective from 29.488877 to 28.007431 in 2 passes
Cbc0014I Cut generator 0 (Probing) - 0 row cuts average 0.0 elements, 0 column cuts (0 active)  in 0.001 seconds - new frequency is -100
Cbc0014I Cut generator 1 (Gomory) - 6 row cuts average 35.2 elements, 0 column cuts (0 active)  in 0.000 seconds - new frequency is 1
Cbc0014I Cut generator 2 (Knapsack) - 1 row cuts average 26.0 elements, 0 column cuts (0 active)  in 0.000 seconds - new frequency is 1
Cbc0014I Cut generator 3 (Clique) - 0 row cuts average 0.0 elements, 0 column cuts (0 active)  in 0.000 seconds - new frequency is -100
Cbc0014I Cut generator 4 (MixedIntegerRounding2) - 0 row cuts average 0.0 elements, 0 column cuts (0 active)  in 0.000 seconds - new frequency is -100
Cbc0014I Cut generator 5 (FlowCover) - 0 row cuts average 0.0 elements, 0 column cuts (0 active)  in 0.000 seconds - new frequency is -100
Cbc0014I Cut generator 6 (TwoMirCuts) - 9 row cuts average 33.0 elements, 0 column cuts (0 active)  in 0.000 seconds - new frequency is -100
Cbc0001I Search completed - best objective 28.007431, took 18 iterations and 0 nodes (0.03 seconds)
Cbc0035I Maximum depth 0, 4 variables fixed on reduced cost
Cuts at root node changed objective from 29.4889 to 28.0074
Probing was tried 2 times and created 0 cuts of which 0 were active after adding rounds of cuts (0.001 seconds)
Gomory was tried 2 times and created 6 cuts of which 0 were active after adding rounds of cuts (0.000 seconds)
Knapsack was tried 2 times and created 1 cuts of which 0 were active after adding rounds of cuts (0.000 seconds)
Clique was tried 2 times and created 0 cuts of which 0 were active after adding rounds of cuts (0.000 seconds)
MixedIntegerRounding2 was tried 2 times and created 0 cuts of which 0 were active after adding rounds of cuts (0.000 seconds)
FlowCover was tried 2 times and created 0 cuts of which 0 were active after adding rounds of cuts (0.000 seconds)
TwoMirCuts was tried 2 times and created 9 cuts of which 0 were active after adding rounds of cuts (0.000 seconds)
ZeroHalf was tried 1 times and created 0 cuts of which 0 were active after adding rounds of cuts (0.000 seconds)

Result - Optimal solution found

Objective value:                28.00743100
Enumerated nodes:               0
Total iterations:               18
Time (CPU seconds):             0.03
Time (Wallclock seconds):       0.04

Total time (CPU seconds):       0.03   (Wallclock seconds):       0.04

